proyfinal/src/viki/013/andrea/andrea-localstore/experimentInOfficeAgust.take6/worker_5/bc81d29d-4b42-45ba-83e2-024dbec231db.als.cnf.out
Reading from standard input... Use '--help' for help.
============================[ Problem Statistics ]=============================
|                                                                             |
|  Number of variables:         87638                                         |
|  Number of clauses:          161767                                         |
|  Parse time:                   0.03 s                                       |
|                                                                             |
============================[ Search Statistics ]==============================
| Conflicts |          ORIGINAL         |          LEARNT          | Progress |
|           |    Vars  Clauses Literals |    Limit  Clauses Lit/Cl |          |
===============================================================================
|       100 |   65074   115025   287243 |    42175      100     31 | 25.747 % |
|       250 |   65052   115025   287243 |    46393      249     54 | 25.772 % |
|       475 |   65052   114933   287032 |    51032      474     63 | 25.772 % |
|       812 |   65052   114933   287032 |    56136      811     49 | 25.772 % |
|      1318 |   65048   114917   286988 |    61749     1289     63 | 25.776 % |
|      2077 |   65028   114833   286795 |    67924     2047     66 | 25.799 % |
|      3216 |   65028   114833   286795 |    74717     3186     66 | 25.799 % |
|      4924 |   54412   114715   286534 |    82188     4887     78 | 37.913 % |
|      7486 |   54335    82477   207417 |    90407     7400     72 | 38.001 % |
|     11330 |   54271    82199   206769 |    99448    11237     74 | 38.074 % |
|     17096 |   54124    81743   205662 |   109393    16995     76 | 38.241 % |
===============================================================================
restarts              : 63
conflicts             : 18071          (6513 /sec)
decisions             : 70828          (0.00 % random) (25527 /sec)
propagations          : 29349447       (10577955 /sec)
conflict literals     : 1342941        (45.06 % deleted)
Memory used           : 35.84 MB
CPU time              : 2.77459 s

INDETERMINATE
